
(set-logic ALL) 

(declare-datatype MyList ((Nil) (Cons (head Real) (tail MyList)) )) 
(declare-fun l0 () MyList) 
(declare-fun l1 () MyList) 
(declare-fun l2 () MyList) 
(declare-fun l3 () MyList) 
(declare-fun i0 () Real) 
(declare-fun i1 () Real) 
(assert (and (= l0 Nil) (= l0 Nil)) )
(assert (is-Cons Nil) )
(assert (and (= l1 l3) (= l1 l3) (= l1 Nil)) )
(assert (= l1 l2) )
(assert (= l1 Nil) )
(assert (or (= l3 Nil) (is-Cons Nil) (is-Nil Nil) (is-Cons l2)) )
(assert (is-Nil Nil) )
(assert (not (= l2 Nil)) )
(check-sat)
